90
1527
7
45
95
87
76
96
54
87
0 2
0 6
0 8
0 9
0 11
0 12
0 15
0 17
0 23
0 31
0 33
0 34
0 36
0 38
0 41
0 42
0 43
0 45
0 47
0 57
0 58
0 59
0 60
0 65
0 71
0 72
0 74
0 75
0 78
0 81
0 82
0 83
0 88
0 89
1 4
1 5
1 7
1 9
1 13
1 16
1 22
1 26
1 27
1 28
1 30
1 33
1 36
1 37
1 39
1 40
1 47
1 50
1 51
1 53
1 54
1 55
1 56
1 57
1 58
1 64
1 66
1 69
1 73
1 83
1 87
2 4
2 11
2 13
2 15
2 17
2 18
2 19
2 20
2 22
2 23
2 25
2 28
2 29
2 30
2 33
2 36
2 38
2 41
2 50
2 52
2 53
2 55
2 57
2 58
2 60
2 61
2 64
2 69
2 70
2 71
2 72
2 74
2 75
2 76
2 80
2 81
2 85
2 86
2 87
2 88
2 89
3 4
3 6
3 7
3 9
3 11
3 16
3 20
3 33
3 36
3 42
3 44
3 45
3 51
3 52
3 55
3 56
3 60
3 63
3 64
3 70
3 72
3 75
3 76
3 79
3 85
3 88
3 89
4 14
4 16
4 17
4 18
4 20
4 21
4 22
4 23
4 24
4 26
4 32
4 35
4 36
4 38
4 41
4 45
4 47
4 48
4 49
4 50
4 51
4 53
4 56
4 61
4 63
4 64
4 65
4 66
4 67
4 68
4 69
4 72
4 75
4 76
4 78
4 80
4 85
5 8
5 10
5 12
5 13
5 14
5 15
5 19
5 23
5 24
5 28
5 30
5 31
5 34
5 35
5 37
5 41
5 43
5 45
5 49
5 50
5 52
5 53
5 57
5 58
5 61
5 62
5 67
5 70
5 74
5 77
5 79
5 85
5 86
5 87
5 88
5 89
6 8
6 12
6 14
6 15
6 23
6 25
6 27
6 28
6 30
6 31
6 33
6 34
6 35
6 37
6 38
6 39
6 41
6 43
6 49
6 50
6 51
6 55
6 56
6 58
6 59
6 60
6 61
6 69
6 78
6 79
6 80
6 81
6 89
7 11
7 12
7 16
7 19
7 23
7 26
7 29
7 31
7 33
7 41
7 47
7 49
7 53
7 54
7 57
7 60
7 68
7 69
7 70
7 72
7 73
7 77
7 80
7 81
7 83
8 9
8 10
8 11
8 13
8 14
8 27
8 28
8 30
8 32
8 33
8 37
8 39
8 40
8 42
8 43
8 47
8 55
8 56
8 59
8 63
8 64
8 66
8 68
8 70
8 71
8 72
8 78
8 82
8 83
8 84
8 85
8 87
9 13
9 17
9 22
9 23
9 28
9 29
9 31
9 34
9 37
9 39
9 40
9 41
9 42
9 43
9 45
9 51
9 54
9 55
9 57
9 59
9 61
9 62
9 65
9 69
9 71
9 72
9 74
9 76
9 77
9 80
9 81
9 82
9 83
9 86
9 87
10 11
10 12
10 13
10 17
10 18
10 21
10 22
10 23
10 28
10 29
10 30
10 32
10 33
10 34
10 35
10 37
10 39
10 42
10 48
10 52
10 53
10 61
10 62
10 63
10 64
10 65
10 69
10 70
10 71
10 73
10 75
10 78
10 82
10 87
10 88
11 14
11 15
11 16
11 21
11 26
11 28
11 37
11 43
11 47
11 48
11 54
11 55
11 57
11 59
11 65
11 66
11 69
11 74
11 76
11 78
11 79
11 83
11 84
11 87
11 89
12 13
12 17
12 18
12 19
12 20
12 23
12 24
12 25
12 37
12 38
12 39
12 42
12 47
12 49
12 50
12 60
12 66
12 68
12 69
12 72
12 74
12 80
12 82
12 85
12 87
12 88
13 17
13 26
13 28
13 29
13 30
13 36
13 38
13 40
13 41
13 43
13 48
13 50
13 51
13 64
13 66
13 69
13 71
13 72
13 75
13 76
13 77
13 80
13 81
13 87
14 15
14 20
14 21
14 24
14 26
14 27
14 28
14 30
14 33
14 37
14 38
14 43
14 44
14 45
14 53
14 56
14 59
14 60
14 65
14 66
14 67
14 68
14 69
14 71
14 78
14 79
14 86
14 88
14 89
15 16
15 17
15 21
15 32
15 34
15 35
15 44
15 45
15 47
15 48
15 60
15 67
15 71
15 77
15 80
15 81
15 84
15 85
16 17
16 22
16 27
16 28
16 32
16 33
16 38
16 41
16 43
16 44
16 45
16 48
16 50
16 53
16 54
16 65
16 68
16 70
16 72
16 82
16 83
16 87
17 19
17 23
17 24
17 30
17 31
17 34
17 35
17 36
17 38
17 40
17 41
17 43
17 44
17 47
17 51
17 53
17 54
17 58
17 61
17 66
17 69
17 70
17 71
17 72
17 77
17 80
17 84
17 85
17 86
17 89
18 26
18 31
18 42
18 43
18 45
18 47
18 52
18 53
18 56
18 59
18 61
18 62
18 64
18 68
18 69
18 76
18 77
18 79
18 82
18 83
19 22
19 23
19 24
19 31
19 32
19 33
19 34
19 36
19 42
19 44
19 45
19 46
19 50
19 51
19 52
19 53
19 57
19 66
19 68
19 70
19 71
19 72
19 79
19 83
19 85
19 87
19 88
19 89
20 22
20 23
20 28
20 29
20 31
20 32
20 33
20 35
20 36
20 37
20 42
20 44
20 45
20 50
20 55
20 59
20 65
20 66
20 69
20 70
20 72
20 73
20 76
20 77
20 82
20 83
20 87
20 88
21 23
21 27
21 32
21 35
21 36
21 39
21 41
21 42
21 43
21 46
21 47
21 48
21 53
21 64
21 65
21 66
21 69
21 70
21 71
21 72
21 73
21 75
21 77
21 85
21 88
21 89
22 23
22 27
22 29
22 37
22 38
22 39
22 40
22 43
22 46
22 47
22 48
22 52
22 53
22 54
22 59
22 64
22 69
22 72
22 75
22 77
22 78
22 81
22 84
23 24
23 25
23 26
23 29
23 30
23 31
23 33
23 34
23 41
23 42
23 44
23 45
23 46
23 48
23 49
23 52
23 53
23 55
23 56
23 60
23 61
23 64
23 65
23 66
23 75
23 77
23 78
23 80
23 85
24 25
24 27
24 28
24 29
24 37
24 38
24 40
24 41
24 46
24 51
24 52
24 53
24 56
24 58
24 59
24 62
24 68
24 71
24 73
24 75
24 76
24 77
24 78
24 79
24 83
24 84
24 85
24 86
24 88
24 89
25 29
25 30
25 31
25 32
25 33
25 36
25 38
25 41
25 43
25 45
25 52
25 54
25 55
25 58
25 63
25 64
25 65
25 66
25 68
25 72
25 73
25 74
25 79
25 84
25 85
25 89
26 30
26 31
26 34
26 35
26 38
26 45
26 49
26 50
26 52
26 60
26 62
26 64
26 68
26 71
26 75
26 76
26 77
26 79
26 82
26 84
26 88
26 89
27 28
27 29
27 30
27 33
27 34
27 38
27 39
27 46
27 50
27 51
27 52
27 55
27 64
27 67
27 70
27 72
27 78
27 80
27 85
27 86
27 88
28 34
28 35
28 36
28 37
28 39
28 45
28 46
28 47
28 48
28 50
28 52
28 53
28 61
28 63
28 64
28 68
28 69
28 75
28 76
28 79
28 80
28 81
28 83
28 84
28 86
29 30
29 33
29 36
29 45
29 47
29 49
29 50
29 51
29 52
29 55
29 62
29 71
29 73
29 76
29 78
29 80
29 82
29 83
29 84
29 88
29 89
30 33
30 34
30 35
30 40
30 42
30 43
30 47
30 53
30 54
30 56
30 57
30 58
30 59
30 60
30 63
30 64
30 70
30 71
30 78
30 83
30 84
30 86
30 88
30 89
31 33
31 34
31 35
31 38
31 39
31 42
31 46
31 48
31 50
31 51
31 52
31 53
31 59
31 60
31 61
31 63
31 65
31 67
31 71
31 74
31 78
31 83
31 84
31 86
31 87
32 34
32 36
32 40
32 43
32 45
32 46
32 47
32 48
32 53
32 54
32 55
32 59
32 60
32 63
32 65
32 66
32 70
32 73
32 78
32 79
32 80
32 83
32 84
32 86
32 88
33 39
33 40
33 45
33 47
33 48
33 51
33 52
33 55
33 56
33 57
33 61
33 63
33 66
33 67
33 69
33 72
33 74
33 79
33 85
34 37
34 38
34 40
34 41
34 42
34 43
34 47
34 49
34 50
34 53
34 55
34 57
34 61
34 62
34 67
34 70
34 74
34 75
34 77
34 79
34 81
34 83
34 85
34 87
34 88
35 39
35 43
35 44
35 45
35 48
35 49
35 51
35 59
35 61
35 66
35 67
35 73
35 77
35 82
35 85
35 87
36 43
36 48
36 50
36 55
36 57
36 58
36 59
36 66
36 67
36 70
36 71
36 72
36 78
36 80
36 83
36 84
36 85
36 86
36 88
37 38
37 39
37 45
37 46
37 47
37 48
37 50
37 52
37 53
37 54
37 57
37 60
37 62
37 64
37 65
37 66
37 68
37 70
37 72
37 73
37 74
37 76
37 77
37 79
37 80
37 82
37 86
38 41
38 43
38 44
38 47
38 48
38 49
38 51
38 56
38 61
38 62
38 64
38 67
38 68
38 74
38 75
38 76
38 77
38 78
38 79
38 80
38 84
38 85
38 86
38 87
38 89
39 40
39 45
39 52
39 60
39 61
39 64
39 65
39 67
39 68
39 71
39 77
39 78
39 79
39 82
39 87
40 46
40 47
40 48
40 49
40 50
40 51
40 58
40 66
40 69
40 70
40 72
40 77
40 78
40 83
40 87
40 88
40 89
41 42
41 49
41 50
41 54
41 57
41 61
41 62
41 64
41 67
41 71
41 72
41 74
41 75
41 81
41 85
41 89
42 49
42 52
42 58
42 59
42 60
42 61
42 62
42 63
42 65
42 68
42 71
42 73
42 74
42 78
42 81
42 86
42 87
42 88
42 89
43 44
43 48
43 51
43 54
43 56
43 58
43 59
43 60
43 65
43 66
43 67
43 70
43 71
43 73
43 78
43 80
43 82
43 85
43 87
43 88
43 89
44 46
44 47
44 49
44 52
44 53
44 54
44 55
44 57
44 58
44 60
44 61
44 62
44 63
44 65
44 66
44 67
44 71
44 73
44 74
44 77
44 79
44 85
44 89
45 49
45 51
45 55
45 57
45 63
45 65
45 66
45 70
45 71
45 74
45 76
45 77
45 79
45 86
45 88
45 89
46 47
46 53
46 54
46 56
46 57
46 58
46 59
46 60
46 66
46 67
46 69
46 74
46 76
46 78
46 79
46 80
46 82
46 84
46 85
46 86
47 49
47 52
47 55
47 59
47 62
47 65
47 66
47 68
47 76
47 79
47 80
47 82
47 85
47 86
47 87
48 51
48 53
48 55
48 56
48 60
48 66
48 70
48 72
48 73
48 75
48 77
48 80
48 81
48 82
48 83
48 86
48 87
48 88
48 89
49 50
49 52
49 53
49 54
49 60
49 62
49 68
49 70
49 71
49 74
49 75
49 76
49 80
49 86
49 88
50 54
50 55
50 56
50 57
50 60
50 65
50 66
50 67
50 70
50 72
50 76
50 79
50 80
50 81
50 82
50 89
51 52
51 56
51 61
51 63
51 65
51 67
51 68
51 69
51 77
51 78
51 79
51 81
51 82
51 83
51 84
51 85
52 61
52 67
52 68
52 72
52 81
52 84
52 85
52 86
52 88
52 89
53 54
53 57
53 59
53 61
53 64
53 65
53 68
53 69
53 70
53 72
53 73
53 76
53 77
53 80
53 81
53 84
53 85
54 56
54 57
54 60
54 61
54 66
54 70
54 71
54 74
54 76
54 77
54 80
54 81
54 82
54 87
54 88
55 58
55 59
55 63
55 65
55 68
55 70
55 71
55 73
55 74
55 77
55 78
55 80
55 81
55 83
55 84
55 86
55 87
56 59
56 64
56 67
56 69
56 70
56 76
56 82
56 83
56 85
56 86
56 87
56 88
57 59
57 60
57 63
57 72
57 74
57 76
57 77
57 82
57 85
57 87
57 88
58 62
58 67
58 68
58 71
58 74
58 75
58 76
58 77
58 80
58 86
58 87
58 89
59 60
59 61
59 67
59 74
59 76
59 77
59 79
59 81
59 87
59 88
59 89
60 63
60 66
60 73
60 74
60 75
60 76
60 77
60 78
60 79
60 82
60 87
60 89
61 62
61 66
61 70
61 74
61 76
61 81
61 89
62 64
62 67
62 69
62 74
62 76
62 78
62 79
62 80
62 82
62 88
63 66
63 68
63 70
63 71
63 73
63 74
63 76
63 79
63 82
63 84
63 85
64 67
64 69
64 71
64 75
64 80
64 82
64 83
65 71
65 77
65 79
65 83
65 86
65 87
65 89
66 75
66 76
66 77
66 79
66 82
66 83
66 84
66 87
66 88
67 68
67 69
67 72
67 74
67 75
67 76
67 77
67 80
67 81
67 82
67 83
67 85
67 86
67 89
68 71
68 76
68 78
68 79
68 82
68 84
68 88
69 73
69 76
69 80
69 81
69 87
69 89
70 74
70 75
70 76
70 78
70 80
70 81
70 86
71 73
71 74
71 77
71 78
71 84
71 86
71 88
72 75
72 82
72 86
72 87
72 88
72 89
73 85
74 76
74 84
74 87
75 77
75 79
75 83
75 87
75 88
76 77
76 78
76 80
76 84
76 87
77 78
77 84
77 85
78 82
78 85
78 86
79 80
79 85
79 88
79 89
80 89
81 82
81 83
81 89
82 86
82 87
83 85
83 86
83 87
83 88
84 85
84 88
84 89
85 88
86 89
88 89
50 29 66 38 76 32 55 84 71 7 67 30 42
17 72 18 80 49 43 25 14 8 79 27 54 75
53 83 61 85 31 51 19 68 87 5 69 88 15
26 59 6 77 63 70 11 21 4 73 0 23 58
10 64 39 41 82 28 37 1 52 45 57 46 44
24 56 2 86 62 22 81 78 36 40 20 34 47
9 16 65 89 74 35 60 13 3 48 12 33
